Flight connections at a hub/Flight_connections_at_a_hub.sol
# Solution for model Flight_connections_at_a_hub
# Objective value = 112
Z 112
cont_1_1 0
cont_1_2 0
cont_1_3 0
cont_1_4 1
cont_1_5 0
cont_1_6 0
cont_2_1 0
cont_2_2 1
cont_2_3 0
cont_2_4 0
cont_2_5 0
cont_2_6 0
cont_3_1 0
cont_3_2 0
cont_3_3 1
cont_3_4 0
cont_3_5 0
cont_3_6 0
cont_4_1 1
cont_4_2 0
cont_4_3 0
cont_4_4 0
cont_4_5 0
cont_4_6 0
cont_5_1 0
cont_5_2 0
cont_5_3 0
cont_5_4 0
cont_5_5 1
cont_5_6 0
cont_6_1 0
cont_6_2 0
cont_6_3 0
cont_6_4 0
cont_6_5 0
cont_6_6 1
